145959
89,16,20,21,61,1,72,84,47,10,40,66,103,104,100,37,94,53,70,35,38,36,48,69,93,2,77,95,59,90,78,42,23,75,57,27,26,9,58,65,43,86,0,88,79,82,56,22,92,11,91,7,96,54,28,29,4,51,12,30,64,97,105,8,33,25,73,101,13,49,67,18,41,80,98,99,50,34,46,60,102,3,14,74,17,31,62,6,52,83,32,81,71,44,24,85,45,76,5,68,87,39,55,19,15,63
